minizinc/sudoku_problems2/sudoku_p66.dzn
%
% sudoku_p66.dzn
% See http://www.hakank.org/minizinc/sudoku_gcc.mzn
% 
% This problem is problem 66 from
% Gecode's sudoku.cpp
% http://www.gecode.org/gecode-doc-latest/sudoku_8cpp-source.html
% 
x = array2d(1..n, 1..n, [   
% http://janko.at/Raetsel/Sudoku/513.a.htm
% 66
 13,  _,  _,  _,  9, 10,  _,  _,  6,  _, 15,  4,  _,  3,  _, 12,
  _,  _,  _,  _, 11,  6,  _,  _,  5, 10,  _, 14,  9, 13,  _,  _,
  6, 14,  5,  _,  _,  _,  _,  _,  _, 13,  _,  _,  7, 15,  _,  _,
  _,  3, 16,  9,  _,  _, 15, 13, 12,  _,  _,  _,  4,  _,  _,  _,
  1,  6,  _,  _, 10, 15,  4,  _,  _, 12,  _,  7,  _,  _,  5,  8,
 16,  _,  _,  _,  _,  1,  _,  _, 10,  _, 11,  8,  _,  _, 15,  9,
  _,  7, 12,  _,  3,  _,  _,  8,  _,  _,  _, 15,  6,  _,  _,  _,
 10,  8,  _, 15,  _, 16,  _, 12,  4,  3,  _,  _,  2,  _,  _,  _,
  _,  _,  _,  7,  _,  _,  9, 14,  3,  _, 13,  _,  8,  _,  4, 15,
  _,  _,  _,  8, 16,  _,  _,  _,  9,  _,  _,  5,  _,  6, 12,  _,
  5,  9,  _,  _, 15,  3,  _,  4,  _,  _, 12,  _,  _,  _,  _, 16,
  4, 15,  _,  _,  6,  _, 13,  _,  _, 11,  7, 10,  _,  _,  2, 14,
  _,  _,  _, 13,  _,  _,  _, 11, 14,  9,  _,  _, 16,  8,  6,  _,
  _,  _,  2, 16,  _,  _,  3,  _,  _,  _,  _,  _,  _, 11, 14,  5,
  _,  _, 14,  4,  8,  _,  6, 10,  _,  _,  2, 12,  _,  _,  _,  _,
  3,  _,  8,  _, 14,  5,  _, 15,  _,  _, 10, 13,  _,  _,  _,  4
]);

n = 16;


